n_res = 5;
rcap = [5, 15, 91, 77, 85];
rtype = [1, 1, 2, 2, 2];
n_tasks = 16;
modes = [ {1, 2, 3}, {4, 5, 6}, {7, 8, 9}, {10, 11, 12}, {13, 14, 15}, {16, 17, 18}, {19, 20, 21}, {22, 23, 24}, {25, 26, 27}, {28, 29, 30}, {31, 32, 33}, {34, 35, 36}, {37, 38, 39}, {40, 41, 42}, {43, 44, 45}, {46, 47, 48} ];
succ = [ {4, 6, 7}, {10, 12, 14}, {7, 13}, {5, 9, 10}, {8, 11, 16}, {12}, {11, 15, 16}, {12, 14}, {11, 13}, {13, 15}, {14}, {15}, {16}, {}, {}, {} ];
n_opt = 48;
dur = [5, 7, 9, 4, 5, 8, 5, 5, 9, 3, 4, 7, 2, 2, 2, 1, 3, 4, 1, 7, 10, 2, 8, 8, 1, 3, 9, 1, 10, 10, 2, 4, 5, 1, 9, 9, 2, 8, 9, 7, 9, 10, 6, 7, 9, 2, 3, 4];
rreq = [|  0,  1,  0,  0,  6,  0,  0,  2,  0,  0,  7,  3,  2,  3,  0,  8,  0,  4,  6,  0,  2,  0,  0,  7,  6,  5,  0,  9,  0,  9,  0,  0,  0,  9,  7,  0,  7,  5,  0,  0,  0,  0,  3,  0,  0,  0,  0,  5
        |  6,  0,  1,  6,  0,  4,  8,  0, 10,  3,  0,  0,  0,  0,  7,  0,  5,  0,  0,  7,  0,  9,  8,  0,  0,  0,  8,  0,  9,  0, 10,  9,  9,  0,  0,  5,  0,  0,  6,  6,  5,  2,  0,  7,  7,  5,  4,  0
        |  0,  7,  7,  0,  4,  0,  0,  0,  0,  0,  0,  0,  6,  0,  6,  2,  0,  0,  0,  6,  4,  0,  0,  0,  0,  9,  7, 10,  0,  0,  6,  4,  0,  0,  0,  6,  0,  8,  4,  9,  8,  8,  0,  9,  8,  9,  0,  5
        |  0,  2,  2,  0,  0,  0,  0,  0,  0,  0,  0,  6, 10, 10,  0,  0,  9,  6,  9,  0,  0,  5,  5,  5,  0,  0,  0,  6,  0,  0,  0,  0,  6,  0,  3,  0,  8,  6,  6,  5,  4,  0,  2,  0,  0,  6,  0,  0
        |  8,  0,  0,  5,  0,  4,  8,  8,  6,  2,  1,  1,  6,  0,  0,  0,  3,  0,  7,  6,  0,  2,  0,  0,  6,  5,  5,  5,  4,  4,  4,  0,  0,  4,  0,  0,  8,  4,  0,  0,  7,  5,  6,  0,  0,  0,  4,  3 |];
